Au C N H
  1.0000
 14.6936789130000     0.0000000000000    0.0000000000000
 -4.4081036739000     7.6350595282000    0.0000000000000 
  0.0000000000000     0.0000000000000   30.0000000000000
 75 16 2 18
Cart
          0.000000001     1.696679895     0.000000000
         -1.469367891     4.241699738     0.000000000
         -2.938735782     6.786719581     0.000000000
          2.938735782     1.696679895     0.000000000
          1.469367891     4.241699738     0.000000000
         -0.000000000     6.786719580     0.000000000
          5.877471565     1.696679895     0.000000000
          4.408103674     4.241699738     0.000000000
          2.938735782     6.786719581     0.000000000
          8.816207348     1.696679895     0.000000000
          7.346839457     4.241699738     0.000000000
          5.877471565     6.786719581     0.000000000
         11.754943131     1.696679895     0.000000000
         10.285575239     4.241699738     0.000000000
          8.816207348     6.786719581     0.000000000
         -0.000000000     0.000000000     2.399467719
         -1.469367891     2.545019843     2.399467719
         -2.938735782     5.090039685     2.399467719
          2.938735783     0.000000000     2.399467719
          1.469367892     2.545019843     2.399467719
         -0.000000000     5.090039686     2.399467719
          5.877471566     0.000000000     2.399467719
          4.408103674     2.545019843     2.399467719
          2.938735783     5.090039686     2.399467719
          8.816207348     0.000000000     2.399467719
          7.346839456     2.545019843     2.399467719
          5.877471565     5.090039685     2.399467719
         11.754943130     0.000000000     2.399467719
         10.285575239     2.545019842     2.399467719
          8.816207348     5.090039685     2.399467719
          1.469367891     0.848339947     4.798935438
         -0.000000000     3.393359791     4.798935438
         -1.469367891     5.938379633     4.798935438
          4.408103674     0.848339948     4.798935438
          2.938735783     3.393359790     4.798935438
          1.469367891     5.938379633     4.798935438
          7.346839457     0.848339947     4.798935438
          5.877471565     3.393359790     4.798935438
          4.408103674     5.938379634     4.798935438
         10.285575239     0.848339947     4.798935438
          8.816207347     3.393359790     4.798935438
          7.346839456     5.938379633     4.798935438
         13.224311021     0.848339948     4.798935438
         11.754943130     3.393359790     4.798935438
         10.285575239     5.938379633     4.798935438
          0.000000001     1.696679895     7.198403157
         -1.469367891     4.241699738     7.198403157
         -2.938735782     6.786719581     7.198403157
          2.938735782     1.696679895     7.198403157
          1.469367891     4.241699738     7.198403157
         -0.000000000     6.786719580     7.198403157
          5.877471565     1.696679895     7.198403157
          4.408103674     4.241699738     7.198403157
          2.938735782     6.786719581     7.198403157
          8.816207348     1.696679895     7.198403157
          7.346839457     4.241699738     7.198403157
          5.877471565     6.786719581     7.198403157
         11.754943131     1.696679895     7.198403157
         10.285575239     4.241699738     7.198403157
          8.816207348     6.786719581     7.198403157
         -0.000000000     0.000000000     9.597870876
         -1.469367891     2.545019843     9.597870876
         -2.938735782     5.090039685     9.597870876
          2.938735783     0.000000000     9.597870876
          1.469367892     2.545019843     9.597870876
         -0.000000000     5.090039686     9.597870876
          5.877471566     0.000000000     9.597870876
          4.408103674     2.545019843     9.597870876
          2.938735783     5.090039686     9.597870876
          8.816207348     0.000000000     9.597870876
          7.346839456     2.545019843     9.597870876
          5.877471565     5.090039685     9.597870876
         11.754943130     0.000000000     9.597870876
         10.285575239     2.545019842     9.597870876
          8.816207348     5.090039685     9.597870876
          0.986167863     1.711163851    11.857283301
          2.379329539     1.781811024    11.868875818
          3.015711401     3.021740408    11.828302875
          2.257842484     4.192930164    11.775053031
          0.864691048     4.122245039    11.762461287
          0.229347790     2.881406142    11.804080191
          6.620612711     2.138040197    11.900807948
          7.378431038     0.967848497    11.954019367
          7.255945374     3.378916998    11.860188270
          8.770623943     1.037522954    11.967640448
          8.649096839     3.449602125    11.872780014
          9.406915405     2.279410437    11.925991434
          0.284257212     0.340880592    11.903136535
          0.028681143     5.413539756    11.703849003
          9.606633734    -0.253771889    12.026252736
          9.351007374     4.819885318    11.826926782
          4.483713762     3.097221812    11.841479451
          5.152549790     2.063594785    11.888592178
          6.876072292    -0.011107580    11.987054351
          6.659804515     4.301167672    11.818050658
         10.505506300     2.334157847    11.936170138
          0.580127160    -0.240046086    11.053556548
          0.561129998    -0.171760983    12.800120416
         -0.776152593     0.482175225    11.885903167
          0.247172706     6.019587563    12.558746267
          0.270003683     5.954536884    10.813099658
         -1.012085386     5.165502320    11.698601888
          9.367238127    -0.793593887    12.918978735
          9.387173381    -0.860792592    11.173384038
         10.647430969    -0.005848070    12.028502160
          2.976519592     0.858613021    11.911060162
          2.759242972     5.170875468    11.743047391
         -0.869202578     2.825698697    11.794939139
          9.074134826     5.332526906    10.929942924
          9.055198194     5.399776013    12.675545940
         10.411477709     4.677554691    11.843199345
